p cnf 27 198
3 8 19 0
3 10 19 0
3 16 19 0
3 19 20 0
3 19 25 0
5 2 23 0
5 23 7 0
5 23 15 0
6 1 4 0
6 1 13 0
6 1 17 0
6 4 9 0
6 4 12 0
6 4 14 0
6 4 17 0
6 4 18 0
6 4 21 0
6 4 22 0
6 4 26 0
6 12 13 0
6 13 14 0
6 13 17 0
6 13 18 0
6 13 21 0
6 14 17 0
6 17 18 0
6 17 22 0
6 17 26 0
9 1 11 0
9 1 13 0
9 1 17 0
9 6 11 0
9 11 13 0
9 11 14 0
9 11 17 0
9 11 18 0
9 11 19 0
9 11 22 0
9 12 13 0
9 13 14 0
9 13 17 0
9 13 18 0
9 13 21 0
9 14 17 0
9 17 18 0
9 17 22 0
9 17 26 0
12 1 11 0
12 1 17 0
12 6 11 0
12 11 14 0
12 11 17 0
12 11 18 0
12 11 19 0
12 11 22 0
12 14 17 0
12 17 18 0
12 17 22 0
12 17 26 0
13 4 9 0
13 4 22 0
13 4 26 0
19 1 3 0
19 1 4 0
19 1 13 0
19 1 17 0
19 3 4 0
19 3 6 0
19 3 9 0
19 3 12 0
19 3 13 0
19 3 14 0
19 3 17 0
19 3 18 0
19 3 21 0
19 3 22 0
19 3 23 0
19 3 24 0
19 3 26 0
19 4 9 0
19 4 12 0
19 4 14 0
19 4 17 0
19 4 18 0
19 4 21 0
19 4 22 0
19 4 26 0
19 12 13 0
19 13 14 0
19 13 17 0
19 13 18 0
19 13 21 0
19 14 17 0
19 17 18 0
19 17 22 0
19 17 26 0
21 1 11 0
21 1 17 0
21 6 11 0
21 11 14 0
21 11 17 0
21 11 18 0
21 11 19 0
21 11 22 0
21 14 17 0
21 17 18 0
21 17 22 0
21 17 26 0
22 1 13 0
22 12 13 0
22 13 14 0
22 13 18 0
22 13 21 0
23 1 4 0
23 1 5 0
23 1 11 0
23 1 13 0
23 1 17 0
23 4 5 0
23 4 9 0
23 4 11 0
23 4 12 0
23 4 14 0
23 4 17 0
23 4 18 0
23 4 21 0
23 4 22 0
23 4 26 0
23 5 6 0
23 5 9 0
23 5 11 0
23 5 12 0
23 5 13 0
23 5 14 0
23 5 17 0
23 5 18 0
23 5 19 0
23 5 21 0
23 5 22 0
23 5 24 0
23 5 26 0
23 6 11 0
23 11 13 0
23 11 14 0
23 11 17 0
23 11 18 0
23 11 19 0
23 11 22 0
23 12 13 0
23 13 14 0
23 13 17 0
23 13 18 0
23 13 21 0
23 14 17 0
23 17 18 0
23 17 22 0
23 17 26 0
24 1 4 0
24 1 11 0
24 1 13 0
24 1 17 0
24 4 9 0
24 4 11 0
24 4 12 0
24 4 14 0
24 4 17 0
24 4 18 0
24 4 21 0
24 4 22 0
24 4 26 0
24 6 11 0
24 11 13 0
24 11 14 0
24 11 17 0
24 11 18 0
24 11 19 0
24 11 22 0
24 12 13 0
24 13 14 0
24 13 17 0
24 13 18 0
24 13 21 0
24 14 17 0
24 17 18 0
24 17 22 0
24 17 26 0
26 1 11 0
26 1 13 0
26 6 11 0
26 11 13 0
26 11 14 0
26 11 18 0
26 11 19 0
26 11 22 0
26 12 13 0
26 13 14 0
26 13 18 0
26 13 21 0
